(set-info :smt-lib-version 2.6)
(set-logic AUFBVFPDTNIRA)
(set-info :source |
Generated by: AdaCore
Generated on: 2020-03-06
Generator: SPARK
Application: Program verification for Ada
Target solver: Z3
|)
(set-info :license "https://creativecommons.org/licenses/by/4.0/")
(set-info :category "industrial")
(set-info :status unknown)
;;; generated by SMT-LIB2 driver
;;; SMT-LIB2 driver: bit-vectors, common part
;;; SMT-LIB2: integer arithmetic
(declare-sort string 0)

(declare-datatypes () ((tuple0 (Tuple0))))
(declare-sort us_private 0)

(declare-fun private__bool_eq (us_private us_private) Bool)

(declare-const us_null_ext__ us_private)

(declare-sort us_type_of_heap 0)

(declare-datatypes ()
((us_type_of_heap__ref
 (us_type_of_heap__refqtmk (us_type_of_heap__content us_type_of_heap)))))
(declare-sort us_image 0)

(declare-datatypes () ((int__ref (int__refqtmk (int__content Int)))))
(declare-datatypes () ((bool__ref (bool__refqtmk (bool__content Bool)))))
(declare-datatypes ()
((us_fixed__ref (us_fixed__refqtmk (us_fixed__content Int)))))
(declare-datatypes () ((real__ref (real__refqtmk (real__content Real)))))
(declare-datatypes ()
((us_private__ref (us_private__refqtmk (us_private__content us_private)))))
(define-fun int__ref___projection ((a int__ref)) Int (int__content a))

(define-fun us_fixed__ref___projection ((a us_fixed__ref)) Int (us_fixed__content
                                                               a))

(define-fun bool__ref___projection ((a bool__ref)) Bool (bool__content a))

(define-fun real__ref___projection ((a real__ref)) Real (real__content a))

(define-fun us_private__ref___projection ((a us_private__ref)) us_private 
  (us_private__content a))

(declare-fun nth ((_ BitVec 64) Int) Bool)

(declare-fun lsr ((_ BitVec 64) Int) (_ BitVec 64))

(declare-fun asr ((_ BitVec 64) Int) (_ BitVec 64))

(declare-fun lsl ((_ BitVec 64) Int) (_ BitVec 64))

(define-fun abs1 ((x Int)) Int (ite (<= 0 x) x (- x)))

;; Abs_le
  (assert
  (forall ((x Int) (y Int)) (= (<= (abs1 x) y) (and (<= (- y) x) (<= x y)))))

;; Abs_pos
  (assert (forall ((x Int)) (<= 0 (abs1 x))))

(declare-fun rotate_right1 ((_ BitVec 64) Int) (_ BitVec 64))

(declare-fun rotate_left1 ((_ BitVec 64) Int) (_ BitVec 64))

(declare-fun pow2 (Int) Int)

(define-fun to_int1 ((x (_ BitVec 64))) Int (ite (bvsge x (_ bv0 64))
                                            (bv2int x)
                                            (- (- 18446744073709551616 (bv2int x)))))

(define-fun uint_in_range ((i Int)) Bool (and (<= 0 i)
                                         (<= i 18446744073709551615)))

(declare-fun nth_bv ((_ BitVec 64) (_ BitVec 64)) Bool)

(declare-fun eq_sub_bv ((_ BitVec 64) (_ BitVec 64) (_ BitVec 64)
  (_ BitVec 64)) Bool)

(define-fun eq_sub ((a (_ BitVec 64)) (b (_ BitVec 64)) (i Int)
  (n Int)) Bool (forall ((j Int))
                (=> (and (<= i j) (< j (+ i n))) (= (nth a j) (nth b j)))))

(declare-datatypes () ((t__ref (t__refqtmk (t__content (_ BitVec 64))))))
(declare-fun power ((_ BitVec 64) Int) (_ BitVec 64))

(define-fun bv_min ((x (_ BitVec 64))
  (y (_ BitVec 64))) (_ BitVec 64) (ite (bvule x y) x y))

(define-fun bv_max ((x (_ BitVec 64))
  (y (_ BitVec 64))) (_ BitVec 64) (ite (bvule x y) y x))

(define-fun min ((x Int) (y Int)) Int (ite (<= x y) x y))

(define-fun max ((x Int) (y Int)) Int (ite (<= x y) y x))

;; Min_r
  (assert (forall ((x Int) (y Int)) (=> (<= y x) (= (min x y) y))))

;; Max_l
  (assert (forall ((x Int) (y Int)) (=> (<= y x) (= (max x y) x))))

;; Min_comm
  (assert (forall ((x Int) (y Int)) (= (min x y) (min y x))))

;; Max_comm
  (assert (forall ((x Int) (y Int)) (= (max x y) (max y x))))

;; Min_assoc
  (assert
  (forall ((x Int) (y Int) (z Int)) (= (min (min x y) z) (min x (min y z)))))

;; Max_assoc
  (assert
  (forall ((x Int) (y Int) (z Int)) (= (max (max x y) z) (max x (max y z)))))

(declare-sort natural 0)

(declare-fun naturalqtint (natural) Int)

;; natural'axiom
  (assert
  (forall ((i natural))
  (and (<= 0 (naturalqtint i)) (<= (naturalqtint i) 2147483647))))

(define-fun in_range ((x Int)) Bool (and (<= 0 x) (<= x 2147483647)))

(declare-fun attr__ATTRIBUTE_IMAGE (Int) us_image)

(declare-fun attr__ATTRIBUTE_VALUE__pre_check (us_image) Bool)

(declare-fun attr__ATTRIBUTE_VALUE (us_image) Int)

(declare-fun user_eq (natural natural) Bool)

(declare-const dummy natural)

(declare-datatypes ()
((natural__ref (natural__refqtmk (natural__content natural)))))
(define-fun natural__ref_natural__content__projection ((a natural__ref)) natural 
  (natural__content a))

(define-fun to_rep ((x natural)) Int (naturalqtint x))

(declare-fun of_rep (Int) natural)

;; inversion_axiom
  (assert
  (forall ((x natural)) (! (= (of_rep (to_rep x)) x) :pattern ((to_rep x)) )))

;; range_axiom
  (assert
  (forall ((x natural)) (! (in_range (to_rep x)) :pattern ((to_rep x)) )))

;; coerce_axiom
  (assert
  (forall ((x Int))
  (! (=> (in_range x) (= (to_rep (of_rep x)) x)) :pattern ((to_rep
                                                           (of_rep x))) )))

(declare-datatypes ()
((map__ref (map__refqtmk (map__content (Array (_ BitVec 64) natural))))))
(declare-fun slide ((Array (_ BitVec 64) natural) (_ BitVec 64)
  (_ BitVec 64)) (Array (_ BitVec 64) natural))

;; slide_eq
  (assert
  (forall ((a (Array (_ BitVec 64) natural)))
  (forall ((first (_ BitVec 64)))
  (! (= (slide a first first) a) :pattern ((slide a first first)) ))))

;; slide_def
  (assert
  (forall ((a (Array (_ BitVec 64) natural)))
  (forall ((old_first (_ BitVec 64)))
  (forall ((new_first (_ BitVec 64)))
  (forall ((i (_ BitVec 64)))
  (! (= (select (slide a old_first new_first) i) (select a (bvsub i (bvsub new_first old_first)))) :pattern ((select 
  (slide a old_first new_first) i)) ))))))

(define-fun bool_eq ((a (Array (_ BitVec 64) natural))
  (a__first (_ BitVec 64)) (a__last (_ BitVec 64))
  (b (Array (_ BitVec 64) natural)) (b__first (_ BitVec 64))
  (b__last (_ BitVec 64))) Bool (ite (and
                                     (ite (bvule a__first a__last)
                                     (and (bvule b__first b__last)
                                     (= (bvsub a__last a__first) (bvsub b__last b__first)))
                                     (bvugt b__first b__last))
                                     (forall ((temp___idx_154 (_ BitVec 64)))
                                     (=>
                                     (and (bvule a__first temp___idx_154)
                                     (bvule temp___idx_154 a__last))
                                     (= (to_rep (select a temp___idx_154)) 
                                     (to_rep
                                     (select b (bvadd (bvsub b__first a__first) temp___idx_154)))))))
                                true false))

;; bool_eq_rev
  (assert
  (forall ((a (Array (_ BitVec 64) natural))
  (b (Array (_ BitVec 64) natural)))
  (forall ((a__first (_ BitVec 64)) (a__last (_ BitVec 64))
  (b__first (_ BitVec 64)) (b__last (_ BitVec 64)))
  (=> (= (bool_eq b b__first b__last a a__first a__last) true)
  (and
  (ite (bvule a__first a__last)
  (and (bvule b__first b__last)
  (= (bvsub a__last a__first) (bvsub b__last b__first)))
  (bvugt b__first b__last))
  (forall ((temp___idx_154 (_ BitVec 64)))
  (=> (and (bvule a__first temp___idx_154) (bvule temp___idx_154 a__last))
  (= (to_rep (select a temp___idx_154)) (to_rep
                                        (select b (bvadd (bvsub b__first a__first) temp___idx_154)))))))))))

(declare-const attr__ATTRIBUTE_ADDRESS Int)

(declare-const attr__ATTRIBUTE_ADDRESS1 Int)

(declare-fun compare ((Array (_ BitVec 64) natural) (_ BitVec 64)
  (_ BitVec 64) (Array (_ BitVec 64) natural) (_ BitVec 64)
  (_ BitVec 64)) Int)

;; compare_def_eq
  (assert
  (forall ((a (Array (_ BitVec 64) natural))
  (b (Array (_ BitVec 64) natural)))
  (forall ((a_first (_ BitVec 64)) (a_last (_ BitVec 64))
  (b_first (_ BitVec 64)) (b_last (_ BitVec 64)))
  (! (= (= (compare a a_first a_last b b_first b_last) 0)
     (= (bool_eq a a_first a_last b b_first b_last) true)) :pattern (
  (compare a a_first a_last b b_first b_last)) ))))

;; compare_def_lt
  (assert
  (forall ((a (Array (_ BitVec 64) natural))
  (b (Array (_ BitVec 64) natural)))
  (forall ((a_first (_ BitVec 64)) (a_last (_ BitVec 64))
  (b_first (_ BitVec 64)) (b_last (_ BitVec 64)))
  (! (= (< (compare a a_first a_last b b_first b_last) 0)
     (exists ((i (_ BitVec 64)) (j (_ BitVec 64)))
     (and (bvule i a_last)
     (and (bvult j b_last)
     (and (= (bool_eq a a_first i b b_first j) true)
     (or (= i a_last)
     (and (bvult i a_last)
     (< (to_rep (select a (bvadd i #x0000000000000001))) (to_rep
                                                         (select b (bvadd j #x0000000000000001))))))))))) :pattern (
  (compare a a_first a_last b b_first b_last)) ))))

;; compare_def_gt
  (assert
  (forall ((a (Array (_ BitVec 64) natural))
  (b (Array (_ BitVec 64) natural)))
  (forall ((a_first (_ BitVec 64)) (a_last (_ BitVec 64))
  (b_first (_ BitVec 64)) (b_last (_ BitVec 64)))
  (! (= (< 0 (compare a a_first a_last b b_first b_last))
     (exists ((i (_ BitVec 64)) (j (_ BitVec 64)))
     (and (bvule i b_last)
     (and (bvult j a_last)
     (and (= (bool_eq a a_first j b b_first i) true)
     (or (= i b_last)
     (and (bvult i b_last)
     (< (to_rep (select b (bvadd i #x0000000000000001))) (to_rep
                                                         (select a (bvadd j #x0000000000000001))))))))))) :pattern (
  (compare a a_first a_last b b_first b_last)) ))))

(declare-sort tTv1SP1 0)

(declare-const attr__ATTRIBUTE_MODULUS (_ BitVec 64))

(define-fun in_range1 ((x (_ BitVec 64))) Bool (and
                                               (bvule #x0000000000000000 x)
                                               (bvule x #xFFFFFFFFFFFFFFFE)))

(define-fun in_range_int ((x Int)) Bool (and (<= 0 x)
                                        (<= x 18446744073709551614)))

(declare-fun attr__ATTRIBUTE_IMAGE1 ((_ BitVec 64)) us_image)

(declare-fun attr__ATTRIBUTE_VALUE__pre_check1 (us_image) Bool)

(declare-fun attr__ATTRIBUTE_VALUE1 (us_image) (_ BitVec 64))

(declare-fun user_eq1 (tTv1SP1 tTv1SP1) Bool)

(declare-const dummy1 tTv1SP1)

(declare-datatypes ()
((tTv1SP1__ref (tTv1SP1__refqtmk (tTv1SP1__content tTv1SP1)))))
(define-fun tTv1SP1__ref_tTv1SP1__content__projection ((a tTv1SP1__ref)) tTv1SP1 
  (tTv1SP1__content a))

(declare-sort tTv2SP1 0)

(declare-const attr__ATTRIBUTE_MODULUS1 (_ BitVec 64))

(declare-fun attr__ATTRIBUTE_IMAGE2 ((_ BitVec 64)) us_image)

(declare-fun attr__ATTRIBUTE_VALUE__pre_check2 (us_image) Bool)

(declare-fun attr__ATTRIBUTE_VALUE2 (us_image) (_ BitVec 64))

(declare-fun user_eq2 (tTv2SP1 tTv2SP1) Bool)

(declare-const dummy2 tTv2SP1)

(declare-datatypes ()
((tTv2SP1__ref (tTv2SP1__refqtmk (tTv2SP1__content tTv2SP1)))))
(define-fun tTv2SP1__ref_tTv2SP1__content__projection ((a tTv2SP1__ref)) tTv2SP1 
  (tTv2SP1__content a))

(declare-fun array_cntx__v1__aggregate_def (Int
  Int) (Array (_ BitVec 64) natural))

(declare-fun array_cntx__v2__aggregate_def (Int
  Int) (Array (_ BitVec 64) natural))

(define-fun dynamic_invariant ((temp___expr_39 Int) (temp___is_init_35 Bool)
  (temp___skip_constant_36 Bool) (temp___do_toplevel_37 Bool)
  (temp___do_typ_inv_38 Bool)) Bool (=>
                                    (or (= temp___is_init_35 true)
                                    (<= 0 2147483647)) (in_range
                                    temp___expr_39)))

(declare-const rliteral natural)

;; rliteral_axiom
  (assert (= (naturalqtint rliteral) 1))

(declare-const rliteral1 natural)

;; rliteral_axiom
  (assert (= (naturalqtint rliteral1) 0))

;; def_axiom
  (assert
  (forall ((temp___191 Int) (temp___192 Int))
  (let ((temp___190 (array_cntx__v1__aggregate_def temp___191 temp___192)))
  (=>
  (and (dynamic_invariant temp___191 true true true true) (dynamic_invariant
  temp___192 true true true true))
  (forall ((temp___193 (_ BitVec 64)))
  (ite (= temp___193 #xFFFFFFFFFFFFFFFE)
  (= (select temp___190 temp___193) rliteral)
  (= (select temp___190 temp___193) rliteral1)))))))

;; def_axiom
  (assert
  (forall ((temp___195 Int) (temp___196 Int))
  (let ((temp___194 (array_cntx__v2__aggregate_def temp___195 temp___196)))
  (=>
  (and (dynamic_invariant temp___195 true true true true) (dynamic_invariant
  temp___196 true true true true))
  (forall ((temp___197 (_ BitVec 64)))
  (ite (= temp___197 #xFFFFFFFFFFFFFFFE)
  (= (select temp___194 temp___197) rliteral)
  (= (select temp___194 temp___197) rliteral1)))))))

(declare-const v1 (Array (_ BitVec 64) natural))

;; H
  (assert (= v1 (array_cntx__v1__aggregate_def 1 0)))

;; Assume
  (assert true)

(declare-const v2 (Array (_ BitVec 64) natural))

;; H
  (assert (= v2 (array_cntx__v2__aggregate_def 1 0)))

;; Assume
  (assert true)

(assert
;; defqtvc
 ;; File "array_cntx.ads", line 1, characters 0-0
  (not
  (< 0 (compare v1 #x0000000000000000 #xFFFFFFFFFFFFFFFE v2
       #x0000000000000000 #xFFFFFFFFFFFFFFFF))))
(check-sat)

(exit)
